p tw 85 850
1 2
1 13
1 24
1 35
1 46
1 57
1 68
1 79
1 9
1 14
1 19
1 60
1 63
1 72
1 73
1 75
1 76
1 77
1 78
1 80
2 13
2 24
2 35
2 5
2 6
2 10
2 15
2 16
2 43
2 51
2 59
2 61
2 62
2 64
2 65
2 66
2 71
2 74
2 81
13 24
13 35
13 3
13 7
13 18
13 20
13 21
13 22
13 31
13 38
13 44
13 45
13 47
13 48
13 49
13 50
13 54
13 84
24 35
24 4
24 8
24 11
24 23
24 25
24 26
24 27
24 28
24 29
24 32
24 37
24 53
24 55
24 56
24 58
24 83
35 85
35 12
35 17
35 30
35 33
35 34
35 36
35 39
35 40
35 41
35 42
35 52
35 67
35 69
35 70
35 82
46 57
46 68
46 79
46 85
46 3
46 4
46 5
46 16
46 22
46 26
46 29
46 36
46 42
46 50
46 74
46 81
46 82
46 83
46 84
57 68
57 79
57 7
57 10
57 18
57 25
57 28
57 30
57 31
57 32
57 33
57 41
57 45
57 56
57 61
57 62
57 66
57 70
68 79
68 8
68 11
68 15
68 20
68 34
68 37
68 38
68 39
68 40
68 43
68 47
68 49
68 55
68 65
68 69
68 71
79 6
79 12
79 17
79 21
79 23
79 27
79 44
79 48
79 51
79 52
79 53
79 54
79 58
79 59
79 64
79 67
85 3
85 4
85 5
85 6
85 7
85 8
85 9
85 27
85 32
85 38
85 43
85 48
85 62
85 67
85 69
85 70
85 73
85 80
3 4
3 5
3 10
3 11
3 12
3 14
3 25
3 39
3 41
3 44
3 45
3 47
3 51
3 53
3 71
3 75
3 77
4 5
4 15
4 17
4 18
4 19
4 20
4 30
4 34
4 54
4 55
4 56
4 58
4 59
4 60
4 61
4 78
5 21
5 23
5 28
5 31
5 33
5 37
5 40
5 49
5 52
5 63
5 64
5 65
5 66
5 72
5 76
6 7
6 8
6 9
6 10
6 15
6 16
6 29
6 33
6 40
6 47
6 50
6 52
6 53
6 54
6 56
6 60
6 75
7 8
7 9
7 12
7 19
7 20
7 21
7 22
7 28
7 39
7 41
7 58
7 61
7 63
7 65
7 81
7 83
8 9
8 14
8 17
8 23
8 25
8 26
8 30
8 34
8 44
8 49
8 66
8 71
8 72
8 74
8 84
9 11
9 18
9 31
9 36
9 37
9 42
9 45
9 51
9 55
9 59
9 64
9 76
9 77
9 78
9 82
10 11
10 12
10 14
10 15
10 16
10 21
10 26
10 30
10 31
10 32
10 42
10 49
10 58
10 69
10 73
10 78
11 12
11 14
11 18
11 20
11 27
11 28
11 29
11 40
11 43
11 54
11 64
11 70
11 72
11 81
11 82
12 14
12 19
12 23
12 33
12 34
12 36
12 38
12 48
12 56
12 59
12 65
12 74
12 76
12 83
14 17
14 22
14 37
14 50
14 52
14 55
14 60
14 61
14 62
14 63
14 66
14 67
14 80
14 84
15 16
15 17
15 18
15 19
15 22
15 23
15 28
15 36
15 37
15 38
15 39
15 44
15 70
15 77
15 80
16 20
16 25
16 27
16 34
16 41
16 45
16 48
16 55
16 63
16 67
16 72
16 76
16 82
16 83
16 84
17 18
17 19
17 21
17 27
17 32
17 40
17 41
17 42
17 47
17 51
17 66
17 76
17 81
17 84
18 19
18 25
18 33
18 48
18 49
18 50
18 53
18 62
18 63
18 64
18 69
18 74
18 82
19 26
19 29
19 31
19 43
19 45
19 52
19 65
19 67
19 71
19 72
19 73
19 75
19 83
20 21
20 22
20 25
20 30
20 36
20 40
20 43
20 53
20 59
20 60
20 66
20 67
20 73
20 76
21 22
21 26
21 27
21 33
21 37
21 51
21 56
21 69
21 71
21 72
21 78
21 80
21 82
22 23
22 29
22 32
22 34
22 42
22 52
22 55
22 62
22 64
22 70
22 74
22 75
22 77
23 25
23 26
23 31
23 40
23 47
23 48
23 59
23 61
23 63
23 70
23 73
23 77
23 82
25 26
25 33
25 39
25 42
25 51
25 54
25 62
25 65
25 67
25 75
25 76
25 80
26 36
26 38
26 41
26 43
26 45
26 50
26 52
26 60
26 64
26 69
26 78
26 81
27 28
27 29
27 30
27 34
27 38
27 45
27 50
27 51
27 62
27 63
27 65
27 73
27 77
28 29
28 36
28 41
28 44
28 49
28 52
28 59
28 61
28 69
28 75
28 76
28 80
28 84
29 31
29 33
29 39
29 42
29 47
29 48
29 60
29 66
29 67
29 71
29 74
29 78
30 31
30 32
30 39
30 44
30 50
30 52
30 59
30 60
30 65
30 72
30 74
30 77
30 82
31 32
31 36
31 38
31 40
31 51
31 54
31 55
31 63
31 67
31 71
31 84
32 34
32 37
32 43
32 47
32 48
32 53
32 64
32 75
32 76
32 80
32 81
32 83
33 34
33 36
33 37
33 43
33 47
33 58
33 60
33 62
33 72
33 77
33 84
34 36
34 45
34 49
34 54
34 61
34 63
34 64
34 71
34 75
34 78
36 44
36 50
36 51
36 53
36 55
36 66
36 73
36 80
36 81
37 38
37 39
37 42
37 45
37 50
37 53
37 59
37 61
37 67
37 72
37 83
38 39
38 41
38 54
38 56
38 60
38 62
38 64
38 73
38 74
38 76
38 84
39 48
39 51
39 52
39 58
39 63
39 66
39 75
39 78
39 81
39 82
40 41
40 42
40 43
40 44
40 50
40 56
40 62
40 63
40 75
40 78
40 83
41 42
41 48
41 53
41 55
41 60
41 61
41 64
41 71
41 72
41 77
42 45
42 49
42 54
42 58
42 59
42 65
42 73
42 74
42 80
43 45
43 48
43 51
43 52
43 58
43 61
43 74
43 77
43 80
43 84
44 45
44 47
44 58
44 62
44 64
44 67
44 72
44 74
44 78
44 80
44 83
45 47
45 52
45 56
45 59
45 63
45 66
45 70
47 55
47 60
47 61
47 65
47 69
47 73
47 76
47 81
47 82
48 49
48 50
48 55
48 59
48 66
48 72
48 78
48 80
49 50
49 51
49 52
49 58
49 60
49 70
49 71
49 73
49 76
49 83
50 56
50 61
50 65
50 67
50 75
50 77
50 81
51 55
51 60
51 61
51 70
51 74
51 75
51 83
52 53
52 54
52 55
52 62
52 76
52 82
53 54
53 63
53 66
53 69
53 71
53 73
53 74
53 77
53 83
54 61
54 65
54 70
54 72
54 78
54 80
54 81
54 84
55 56
55 58
55 62
55 65
55 69
55 72
56 58
56 66
56 70
56 71
56 74
56 75
56 76
56 80
56 82
58 63
58 64
58 67
58 73
58 77
58 81
58 84
59 60
59 62
59 69
59 71
59 75
59 81
59 84
60 63
60 64
60 70
60 80
60 83
61 67
61 73
61 74
61 78
61 82
62 71
62 73
62 78
62 81
62 83
63 69
63 74
63 80
63 81
64 65
64 66
64 67
64 75
64 82
65 66
65 69
65 77
65 80
65 83
66 70
66 73
66 78
66 84
67 69
67 70
67 71
67 76
69 70
69 74
69 75
69 78
69 84
70 72
70 77
70 81
70 83
71 77
71 80
71 81
71 82
72 73
72 74
72 75
72 81
73 75
73 82
74 76
75 84
76 77
76 78
76 81
77 78
77 84
78 83
80 82
82 83
82 84
83 84
